(declare-const c_0 Real)
(declare-const c_1 Real)
(declare-const c_2 Real)
(declare-const c_3 Real)
(declare-const c_4 Real)
(declare-const c_5 Real)
(declare-const c_6 Real)
(declare-const c_7 Real)
(declare-const c_8 Real)
(declare-const c_9 Real)
(declare-const s_0 Real)
(declare-const s_1 Real)
(declare-const s_2 Real)
(declare-const s_3 Real)
(declare-const s_4 Real)
(declare-const s_5 Real)
(declare-const s_6 Real)
(declare-const s_7 Real)
(declare-const s_8 Real)
(declare-const s_9 Real)
(assert (forall ((q Real) (a Real) (b Real) (olda Real) ) (=> (and (>= (+ (* 1024 1) (* 1 q ) ) 0) (>= (+ (* 1023 1) (* (- 1) q ) ) 0) (>= (+ (* 1024 1) (* 1 a ) ) 0) (>= (+ (* 1023 1) (* (- 1) a ) ) 0) (>= (+ (* 1024 1) (* 1 b ) ) 0) (>= (+ (* 1023 1) (* (- 1) b ) ) 0) (>= (+ (* 1024 1) (* 1 olda ) ) 0) (>= (+ (* 1023 1) (* (- 1) olda ) ) 0) ) (>= (+ (* 1 a s_1 ) (* 1 b s_2 ) (* 1 olda s_3 ) (* 1 q s_4 ) (* 1 s_0 ) ) 0) )))
(assert (forall ((q Real) (a Real) (b Real) (olda Real) ) (=> (and (>= (+ (* 1024 1) (* 1 q ) ) 0) (>= (+ (* 1023 1) (* (- 1) q ) ) 0) (>= (+ (* 1024 1) (* 1 a ) ) 0) (>= (+ (* 1023 1) (* (- 1) a ) ) 0) (>= (+ (* 1024 1) (* 1 b ) ) 0) (>= (+ (* 1023 1) (* (- 1) b ) ) 0) (>= (+ (* 1024 1) (* 1 olda ) ) 0) (>= (+ (* 1023 1) (* (- 1) olda ) ) 0) ) (>= (+ (* 1 a c_1 ) (* 1 b c_2 ) (* 1 c_0 ) (* 1 c_3 olda ) (* 1 c_4 q ) ) 0) )))
(assert (forall ((q Real) (a Real) (b Real) (olda Real) ) (=> (and (>= (+ (* (- 1) 1) (* 1 q ) ) 0) (>= (* 1 1) 0) (>= (+ (* 1 a s_1 ) (* 1 b s_2 ) (* 1 olda s_3 ) (* 1 q s_4 ) (* 1 s_0 ) ) 0) ) (>= (+ (* 3 a s_1 ) (* 4 a s_2 ) (* 1 a s_3 ) (* 1 a s_4 ) (* (- 4) b s_1 ) (* 3 b s_2 ) (* 1 q s_4 ) (* 1 s_0 ) (* (- 1) s_4 ) ) 0) )))
(assert (forall ((q Real) (a Real) (b Real) (olda Real) ) (=> (and (>= (+ (* (- 1) 1) (* 1 q ) ) 0) (>= (* 1 1) 0) (>= (+ (* 1 a s_1 ) (* 1 b s_2 ) (* 1 olda s_3 ) (* 1 q s_4 ) (* 1 s_0 ) ) 0) ) (>= (+ (* 3 a c_1 ) (* 4 a c_2 ) (* 1 a c_3 ) (* 1 a c_4 ) (* (- 4) b c_1 ) (* 3 b c_2 ) (* 1 c_0 ) (* (- 1) c_4 ) (* 1 c_4 q ) ) 0) )))
(assert (forall ((q Real) (a Real) (b Real) (olda Real) ) (=> (and (>= (+ (* (- 1) 1) (* 1 q ) ) 0) (>= (* 1 1) 0) (>= (+ (* 1 a s_1 ) (* 1 b s_2 ) (* 1 olda s_3 ) (* 1 q s_4 ) (* 1 s_0 ) ) 0) ) (>= (+ (* (- 1) 1) (* (- 2) a c_1 ) (* (- 4) a c_2 ) (* (- 1) a c_3 ) (* (- 1) a c_4 ) (* 4 b c_1 ) (* (- 2) b c_2 ) (* 1 c_3 olda ) (* 1 c_4 ) ) 0) )))
(assert (forall ((q Real) (a Real) (b Real) (olda Real) ) (=> (and (>= (* (- 1) q ) 0) (>= (* 1 1) 0) (>= (+ (* 1 a s_1 ) (* 1 b s_2 ) (* 1 olda s_3 ) (* 1 q s_4 ) (* 1 s_0 ) ) 0) ) (>= (+ (* 1 a s_6 ) (* 1 b s_7 ) (* 1 olda s_8 ) (* 1 q s_9 ) (* 1 s_5 ) ) 0) )))
(assert (forall ((q Real) (a Real) (b Real) (olda Real) ) (=> (and (>= (* (- 1) q ) 0) (>= (* 1 1) 0) (>= (+ (* 1 a s_1 ) (* 1 b s_2 ) (* 1 olda s_3 ) (* 1 q s_4 ) (* 1 s_0 ) ) 0) ) (>= (+ (* 1 a c_6 ) (* 1 b c_7 ) (* 1 c_5 ) (* 1 c_8 olda ) (* 1 c_9 q ) ) 0) )))

(check-sat)
(get-model)
